p cnf 110 386
-3 1 0
-3 -2 0
-1 2 3 0
-7 4 0
-7 6 0
-4 -6 7 0
8 5 0
8 -7 0
-5 7 -8 0
10 8 0
10 -9 0
-8 9 -10 0
-11 -10 0
-11 -7 0
10 7 11 0
4 11 -12 0
-4 -11 -12 0
4 -11 12 0
-4 11 12 0
-13 -3 0
-13 12 0
3 -12 13 0
-14 -5 0
-14 9 0
5 -9 14 0
14 11 -15 0
-14 -11 -15 0
14 -11 15 0
-14 11 15 0
16 8 -17 0
-16 -8 -17 0
16 -8 17 0
-16 8 17 0
19 -6 0
19 18 0
6 -18 -19 0
20 17 0
20 19 0
-17 -19 -20 0
-21 15 0
-21 20 0
-15 -20 21 0
-22 -7 -23 0
22 7 -23 0
-22 7 23 0
22 -7 23 0
24 23 0
24 -7 0
-23 7 -24 0
25 -22 0
25 -6 0
22 6 -25 0
25 26 -27 0
-25 -26 -27 0
25 -26 27 0
-25 26 27 0
-9 3 -28 0
9 -3 -28 0
-9 -3 28 0
9 3 28 0
27 28 -29 0
-27 -28 -29 0
27 -28 29 0
-27 28 29 0
-30 -24 0
-30 29 0
24 -29 30 0
-31 18 0
-31 -26 0
-18 26 31 0
-32 -4 0
-32 31 0
4 -31 32 0
-33 32 0
-33 -26 0
-32 26 33 0
-34 -11 0
-34 -33 0
11 33 34 0
35 -30 0
35 -34 0
30 34 -35 0
-36 -21 0
-36 35 0
21 -35 36 0
-37 13 0
-37 36 0
-13 -36 37 0
-9 -1 -38 0
9 1 -38 0
-9 1 38 0
9 -1 38 0
39 3 0
39 38 0
-3 -38 -39 0
-40 -37 0
-40 39 0
37 -39 40 0
-41 17 0
-41 32 0
-17 -32 41 0
-42 41 0
-42 -41 0
-44 -1 0
-44 43 0
1 -43 44 0
42 -44 -45 0
-42 44 -45 0
42 44 45 0
-42 -44 45 0
-26 -46 -47 0
26 46 -47 0
-26 46 47 0
26 -46 47 0
-48 -19 0
-48 8 0
19 -8 48 0
49 -22 0
49 48 0
22 -48 -49 0
-51 -50 0
-51 -4 0
50 4 51 0
52 -18 0
52 -51 0
18 51 -52 0
52 18 -53 0
-52 -18 -53 0
52 -18 53 0
-52 18 53 0
-54 -49 0
-54 53 0
49 -53 54 0
-55 -47 0
-55 54 0
47 -54 55 0
-56 45 0
-56 -55 0
-45 55 56 0
-25 -9 -57 0
25 9 -57 0
-25 9 57 0
25 -9 57 0
-57 -27 -58 0
57 27 -58 0
-57 27 58 0
57 -27 58 0
43 16 -59 0
-43 -16 -59 0
43 -16 59 0
-43 16 59 0
60 31 0
60 59 0
-31 -59 -60 0
-61 58 0
-61 60 0
-58 -60 61 0
-32 46 -62 0
32 -46 -62 0
-32 -46 62 0
32 46 62 0
63 -8 0
63 -62 0
8 62 -63 0
64 -61 0
64 -63 0
61 63 -64 0
7 25 -65 0
-7 -25 -65 0
7 -25 65 0
-7 25 65 0
-65 10 -66 0
65 -10 -66 0
-65 -10 66 0
65 10 66 0
-4 -9 -67 0
4 9 -67 0
-4 9 67 0
4 -9 67 0
68 -10 0
68 -67 0
10 67 -68 0
66 -68 -69 0
-66 68 -69 0
66 68 69 0
-66 -68 69 0
-70 -6 0
-70 50 0
6 -50 70 0
-59 70 -71 0
59 -70 -71 0
-59 -70 71 0
59 70 71 0
72 6 0
72 25 0
-6 -25 -72 0
71 72 -73 0
-71 -72 -73 0
71 -72 73 0
-71 72 73 0
69 -73 -74 0
-69 73 -74 0
69 73 74 0
-69 -73 74 0
-75 -64 0
-75 74 0
64 -74 75 0
76 -56 0
76 -75 0
56 75 -76 0
-77 28 0
-77 -28 0
-57 -16 -78 0
57 16 -78 0
-57 16 78 0
57 -16 78 0
-79 16 0
-79 38 0
-16 -38 79 0
79 10 -80 0
-79 -10 -80 0
79 -10 80 0
-79 10 80 0
51 80 -81 0
-51 -80 -81 0
51 -80 81 0
-51 80 81 0
82 -4 0
82 -57 0
4 57 -82 0
-14 82 -83 0
14 -82 -83 0
-14 -82 83 0
14 82 83 0
81 83 -84 0
-81 -83 -84 0
81 -83 84 0
-81 83 84 0
85 78 0
85 84 0
-78 -84 -85 0
-86 -77 0
-86 -85 0
77 85 86 0
-87 -46 0
-87 9 0
46 -9 87 0
88 -87 0
88 -16 0
87 16 -88 0
-89 -48 0
-89 31 0
48 -31 89 0
-90 -88 0
-90 -89 0
88 89 90 0
-91 24 0
-91 25 0
-24 -25 91 0
-92 72 0
-92 23 0
-72 -23 92 0
93 59 0
93 -92 0
-59 92 -93 0
93 92 -94 0
-93 -92 -94 0
93 -92 94 0
-93 92 94 0
-32 -19 -95 0
32 19 -95 0
-32 19 95 0
32 -19 95 0
-96 94 0
-96 95 0
-94 -95 96 0
-97 -24 -98 0
97 24 -98 0
-97 24 98 0
97 -24 98 0
-96 98 -99 0
96 -98 -99 0
-96 -98 99 0
96 98 99 0
100 91 0
100 -99 0
-91 99 -100 0
-101 26 0
-101 -7 0
-26 7 101 0
100 101 -102 0
-100 -101 -102 0
100 -101 102 0
-100 101 102 0
90 102 -103 0
-90 -102 -103 0
90 -102 103 0
-90 102 103 0
104 -4 0
104 59 0
4 -59 -104 0
105 23 0
105 -4 0
-23 4 -105 0
106 -104 0
106 -105 0
104 105 -106 0
-107 103 0
-107 106 0
-103 -106 107 0
-86 107 -108 0
86 -107 -108 0
-86 -107 108 0
86 107 108 0
76 108 -109 0
-76 -108 -109 0
76 -108 109 0
-76 108 109 0
-110 -40 0
-110 109 0
40 -109 110 0
81 -23 -40 47 -26 0
-74 36 -1 44 0
-71 41 -27 0
60 4 -14 0
33 17 -82 60 0
37 25 0
-102 -85 66 82 0
-8 -43 4 0
-42 91 -48 0
-12 26 -88 -98 38 -11 0
-10 -40 20 98 -29 0
43 18 2 0
-79 -90 44 11 -28 0
13 -87 -57 60 -7 0
-36 -99 -40 69 0
88 80 -37 65 0
-9 -53 -15 -110 0
-65 -36 -80 85 0
100 37 0
75 -76 -97 -83 -2 27 0
-91 -68 -50 70 -109 38 0
-60 -74 -22 0
-88 -85 -109 -42 0
51 67 -102 -31 0
-107 -50 0
63 -67 0
97 93 -19 -33 -32 -21 0
12 -19 8 0
42 70 -85 0
-74 -18 -33 78 85 0
-17 24 48 -87 -67 -54 0
-99 81 87 -7 -18 -5 0
-2 5 -53 35 -22 0
90 58 43 -30 0
-54 102 28 -109 -96 0
12 -19 0
25 -93 0
54 17 -40 0
-29 -85 -22 0
55 70 -29 84 -31 -88 0
-89 -4 51 93 -57 0
-54 51 100 -6 0
-35 37 46 71 86 -80 0
23 106 0
101 -58 16 65 0
-40 -32 0
-108 -90 0
70 -92 -76 0
91 -28 70 0
-8 -95 -98 -56 0
-3 -43 0
-89 12 73 -88 -52 44 0
42 -2 -88 29 -24 -109 0
35 -80 0
-69 -39 0
-64 18 90 -75 81 -86 0
51 -78 19 0
42 38 -54 0
38 -50 20 -83 99 0
28 42 27 -17 -62 0
27 -10 93 15 -75 19 0
-58 90 95 47 -23 0
31 -32 0
-4 19 29 69 107 -54 0
110 0
